p cnf 36 90
c constant inputs match
1 2 3 -4 0
1 2 -3 4 0
1 2 5 -4 0
1 2 -5 4 0
1 2 6 -4 0
1 2 -6 4 0
1 2 7 -4 0
1 2 -7 4 0
8 9 10 -11 0
8 9 -10 11 0
8 9 12 -11 0
8 9 -12 11 0
8 9 13 -11 0
8 9 -13 11 0
8 9 14 -11 0
8 9 -14 11 0
c correct number & matching on var (source) inputs
1 -2 -15 -16 0
1 -2 -17 0
1 -2 -18 17 19 0
1 -2 18 -17 0
1 -2 18 -19 0
1 -2 -20 18 21 0
1 -2 20 -18 0
1 -2 20 -21 0
1 -2 20 0
1 -2 -19 -3 0
1 -2 -21 -3 0
1 -2 -19 5 0
1 -2 -21 -5 0
1 -2 -19 -6 0
1 -2 -21 6 0
1 -2 -19 7 0
1 -2 -21 7 0
8 -9 -22 -23 0
8 -9 -24 0
8 -9 -25 24 26 0
8 -9 25 -24 0
8 -9 25 -26 0
8 -9 -27 25 28 0
8 -9 27 -25 0
8 -9 27 -28 0
8 -9 27 0
8 -9 -26 -10 0
8 -9 -28 -10 0
8 -9 -26 12 0
8 -9 -28 -12 0
8 -9 -26 -13 0
8 -9 -28 13 0
8 -9 -26 14 0
8 -9 -28 14 0
c correct number & matching on node (gate) inputs
-1 -1 -29 0
-1 -1 29 0
-8 -8 -30 0
-8 -8 30 0
c NOT gates compute
31 32 3 0
31 -32 -3 0
31 33 5 0
31 -33 -5 0
31 34 6 0
31 -34 -6 0
31 35 7 0
31 -35 -7 0
c AND gates compute
-31 36 -32 3 0
-31 36 -32 10 0
-31 36 32 -3 -10 0
-31 36 -33 5 0
-31 36 -33 12 0
-31 36 33 -5 -12 0
-31 36 -34 6 0
-31 36 -34 13 0
-31 36 34 -6 -13 0
-31 36 -35 7 0
-31 36 -35 14 0
-31 36 35 -7 -14 0
c OR gates compute
-31 -36 -32 3 10 0
-31 -36 32 -3 0
-31 -36 32 -10 0
-31 -36 -33 5 12 0
-31 -36 33 -5 0
-31 -36 33 -12 0
-31 -36 -34 6 13 0
-31 -36 34 -6 0
-31 -36 34 -13 0
-31 -36 -35 7 14 0
-31 -36 35 -7 0
-31 -36 35 -14 0
c outputs match
-32 0
-33 0
-34 0
35 0
c variable names:
c GateIn_0(2) 1
c VarIn_0(2) 2
c e_0_0_2 3
c WhichConst_0(2) 4
c e_1_0_2 5
c e_2_0_2 6
c e_3_0_2 7
c GateIn_1(2) 8
c VarIn_1(2) 9
c e_0_1_2 10
c WhichConst_1(2) 11
c e_1_1_2 12
c e_2_1_2 13
c e_3_1_2 14
c InputVar_2(0,0) 15
c InputVar_2(0,1) 16
c VAROR_0(2,-1) 17
c VAROR_0(2,0) 18
c InputVar_0(2,0) 19
c VAROR_0(2,1) 20
c InputVar_0(2,1) 21
c InputVar_2(1,0) 22
c InputVar_2(1,1) 23
c VAROR_1(2,-1) 24
c VAROR_1(2,0) 25
c InputVar_1(2,0) 26
c VAROR_1(2,1) 27
c InputVar_1(2,1) 28
c NODEOR_0(2,1) 29
c NODEOR_1(2,1) 30
c Fanin(2) 31
c y_0_2 32
c y_1_2 33
c y_2_2 34
c y_3_2 35
c Type(2) 36
